100
32
18
29
18
14
28
23
6
18
26
8
9
13
1
23
11
26
2
1
28
16
27
1
16
25
2
31
23
25
23
20
2
31
11
10
12
29
19
29
9
23
4
18
27
8
32
22
16
11
6
16
25
32
10
14
6
16
32
3
7
27
28
14
32
27
8
31
30
24
19
3
32
2
4
17
31
19
13
23
32
9
23
23
30
7
20
19
31
10
11
12
16
27
5
17
29
31
3
10
27
3